32 40
3 1 1
6 6 2
10 4 1
10 1 2
9 2 1
7 1 2
7 7 1
3 3 1
5 4 1
4 9 1
7 9 1
3 2 1
2 6 1
2 2 1
1 6 1
1 8 2
8 9 1
10 6 2
4 3 2
10 10 2
1 2 1
10 2 1
1 9 1
8 6 1
2 4 1
3 10 2
4 5 1
5 2 1
5 8 1
6 1 1
9 3 1
2 10 1
10 10 
10 10 
10 10 
10 10 
10 10 
10 10 
10 10 
10 10 
10 10 
10 10 
10 10 
10 10 
10 10 
10 10 
10 10 
10 10 
10 10 
10 10 
10 10 
10 10 
10 10 
10 10 
10 10 
10 10 
10 10 
10 10 
10 10 
10 10 
10 10 
10 10 
10 10 
10 10 
10 10 
10 10 
10 10 
10 10 
10 10 
10 10 
10 10 
10 10 
